results_rootrelaxation/bin012_060_019.srr.sol
solution status: optimal solution found
objective value:                                 2.53
_var696_                           0.0249999999999996 	(obj:2)
_var728_                                        0.165 	(obj:0)
_var750_                                         0.28 	(obj:0)
_var751_                                         0.25 	(obj:1)
_var756_                                         0.13 	(obj:1)
_var765_                            0.179999999999999 	(obj:0)
_var769_                                        0.445 	(obj:0)
_var793_                                        0.165 	(obj:0)
_var803_                                        0.025 	(obj:0)
_var804_                                        0.335 	(obj:0)
_var805_                           0.0599999999999999 	(obj:0)
_var806_                                        0.085 	(obj:1)
_var808_                                        0.205 	(obj:0)
_var814_                                         0.18 	(obj:0)
_var816_                                        0.495 	(obj:0)
_var821_                                        0.235 	(obj:1)
_var829_                                        0.125 	(obj:0)
_var832_                                         0.13 	(obj:1)
_var834_                                        0.505 	(obj:0)
_var835_                           0.0249999999999998 	(obj:0)
_var844_                                        0.275 	(obj:0)
_var845_                           0.0699999999999997 	(obj:0)
_var850_                                        0.075 	(obj:1)
_var851_                                        0.275 	(obj:0)
_var853_                                        0.455 	(obj:0)
_var859_                           0.0499999999999998 	(obj:0)
_var864_                                         0.14 	(obj:0)
_var865_                                        0.185 	(obj:1)
_var866_                                         0.34 	(obj:0)
_var872_                                        0.225 	(obj:1)
_var874_                                         0.24 	(obj:0)
_var879_                                        0.345 	(obj:0)
_var880_                                         0.47 	(obj:0)
_var885_                           0.0549999999999997 	(obj:0)
_var891_                                         0.14 	(obj:0)
_var898_                                         0.34 	(obj:1)
_var899_                                        0.255 	(obj:0)
_var900_                                         0.02 	(obj:1)
_var903_                                        0.085 	(obj:0)
_var905_                                        0.105 	(obj:1)
_var906_                                        0.265 	(obj:0)
_var907_                           0.0749999999999992 	(obj:0)
_var908_                                        0.145 	(obj:0)
_var909_                                         0.11 	(obj:2)
_var911_                                         0.26 	(obj:0)
_var915_                           0.0249999999999998 	(obj:1)
_var916_                                         0.13 	(obj:0)
_var918_                           0.0649999999999998 	(obj:0)
_var920_                           0.0249999999999999 	(obj:0)
_var921_                                        0.185 	(obj:0)
_var922_                                        0.185 	(obj:0)
_var923_                                        0.155 	(obj:0)
_var924_                           0.0400000000000004 	(obj:2)
_var925_                                         0.19 	(obj:1)
_var926_                           0.0749999999999998 	(obj:0)
_var932_                                        0.135 	(obj:0)
_var934_                           0.0150000000000003 	(obj:1)
_var937_                                         0.17 	(obj:1)
_var938_                                          0.1 	(obj:0)
_var939_                           0.0749999999999999 	(obj:0)
_var940_                            0.250000000000001 	(obj:0)
_var941_                                         0.12 	(obj:0)
_var942_                                        0.015 	(obj:0)
